p tw 88 102
1 2
2 13
3 4
3 34
4 5
5 6
6 7
6 74
7 8
8 9
8 27
9 10
10 11
11 12
12 14
13 24
14 15
15 16
16 17
17 18
18 19
19 20
19 74
20 21
21 22
22 23
23 25
23 74
24 35
25 26
26 74
27 28
28 29
29 30
30 31
31 32
31 74
32 33
33 74
34 36
35 46
36 37
37 38
38 39
38 42
39 40
39 74
40 41
41 74
42 43
43 44
44 45
44 63
45 47
46 57
47 48
48 49
49 50
50 51
51 52
52 53
53 54
54 55
55 56
55 59
56 58
57 68
58 74
59 60
60 61
60 74
61 62
62 74
63 64
64 65
65 66
66 67
67 69
67 72
68 79
68 74
69 70
69 74
70 71
71 74
72 73
73 74
74 75
75 76
76 77
77 78
77 82
78 80
79 88
80 81
81 84
82 83
83 84
84 85
85 86
86 87
88 3
